TSPLib/instances/tsp_15.tsp
NAME: tsp_15
TYPE: TSP
DIMENSION: 15
EDGE_WEIGHT_TYPE: EUC_2D
NODE_COORD_SECTION
1 56 299
2 89 10
3 62 253
4 0 370
5 93 155
6 73 59
7 22 365
8 85 81
9 81 225
10 17 64
11 0 97
12 1 166
13 80 147
14 1 287
15 97 51
EOF
